\ENCODING=ISO-8859-1
\Problem name: ilog.cplex

Minimize
 obj1: 102093 x1 + 94140 x2 + 91611 x3 + 109375 x4 + 102087 x5 + 93427 x6
       + 93912 x7 + 100082 x8 + 106059 x9 + 93394 x10 + 91042 x11 + 103900 x12
       + 106881 x13 + 106175 x14 + 95947 x15 + 90577 x16 + 107020 x17
       + 98537 x18 + 96570 x19 + 108853 x20 + 94424 x21 + 100485 x22
       + 109267 x23 + 101449 x24 + 92579 x25 + 102466 x26 + 93073 x27
       + 104798 x28 + 104725 x29 + 103736 x30 + 103153 x31 + 109861 x32
       + 100358 x33 + 99669 x34 + 95277 x35 + 103374 x36 + 95927 x37
       + 101574 x38 + 92189 x39 + 102468 x40 + 101006 x41 + 109002 x42
       + 107482 x43 + 99851 x44 + 96269 x45 + 101586 x46 + 92915 x47
       + 91610 x48 + 100218 x49 + 105144 x50 + 95042 x51 + 96732 x52
       + 101005 x53 + 106708 x54 + 108783 x55 + 97935 x56 + 108701 x57
       + 91986 x58 + 109297 x59 + 99756 x60 + 94766 x61 + 98094 x62 + 90622 x63
       + 93253 x64 + 108288 x65 + 109626 x66 + 108427 x67 + 95334 x68
       + 108588 x69 + 101644 x70 + 109291 x71 + 95413 x72 + 108528 x73
       + 97927 x74 + 104675 x75 + 99918 x76 + 106919 x77 + 91851 x78
       + 108222 x79 + 106706 x80 + 93986 x81 + 105783 x82 + 108289 x83
       + 108005 x84 + 94940 x85 + 91763 x86 + 101591 x87 + 92734 x88
       + 108451 x89 + 98774 x90 + 108326 x91 + 96843 x92 + 99198 x93
       + 90051 x94 + 104384 x95 + 93829 x96 + 96631 x97 + 107629 x98
       + 102001 x99 + 106606 x100 + 96661 x101 + 109620 x102 + 99724 x103
       + 95167 x104 + 106740 x105 + 109352 x106 + 97604 x107 + 97186 x108
       + 99251 x109 + 100443 x110 + 98063 x111 + 101487 x112 + 104194 x113
       + 93409 x114 + 100065 x115 + 106238 x116 + 107586 x117 + 101024 x118
       + 97190 x119 + 92896 x120 + 94220 x121 + 103041 x122 + 92740 x123
       + 103110 x124 + 107036 x125 + 96895 x126 + 90494 x127 + 98917 x128
       + 99459 x129 + 101564 x130 + 105383 x131 + 107949 x132 + 96788 x133
       + 100988 x134 + 108347 x135 + 97412 x136 + 108018 x137 + 103328 x138
       + 105321 x139 + 103266 x140 + 100483 x141 + 92814 x142 + 91544 x143
       + 104353 x144 + 106226 x145 + 102046 x146 + 99265 x147 + 95123 x148
       + 91275 x149 + 94386 x150 + 98379 x151 + 106475 x152 + 99064 x153
       + 94507 x154 + 99192 x155 + 97572 x156 + 95354 x157 + 98039 x158
       + 105630 x159 + 100232 x160 + 90889 x161 + 96203 x162 + 95552 x163
       + 93222 x164 + 102591 x165 + 104980 x166 + 97356 x167 + 99556 x168
       + 107341 x169 + 90595 x170 + 90699 x171 + 95037 x172 + 108521 x173
       + 97832 x174 + 105736 x175 + 98139 x176 + 106784 x177 + 104868 x178
       + 106890 x179 + 94498 x180 + 92181 x181 + 108787 x182 + 104522 x183
       + 102436 x184 + 104945 x185 + 104342 x186 + 105897 x187 + 94681 x188
       + 103012 x189 + 102664 x190 + 95392 x191 + 95873 x192 + 105816 x193
       + 106283 x194 + 103193 x195 + 95446 x196 + 95925 x197 + 92182 x198
       + 101549 x199 + 91122 x200 + 109537 x201 + 105996 x202 + 93541 x203
       + 97383 x204 + 97393 x205 + 109973 x206 + 100326 x207 + 91665 x208
       + 99060 x209 + 95389 x210 + 103024 x211 + 108023 x212 + 94707 x213
       + 109224 x214 + 90969 x215 + 107298 x216 + 106781 x217 + 90066 x218
       + 100317 x219 + 97615 x220 + 92088 x221 + 102186 x222 + 90477 x223
       + 97642 x224 + 101705 x225 + 108880 x226 + 109248 x227 + 90154 x228
       + 91641 x229 + 103209 x230 + 109477 x231 + 101872 x232 + 103392 x233
       + 92610 x234 + 91664 x235 + 91679 x236 + 105464 x237 + 92746 x238
       + 104118 x239 + 106019 x240 + 94445 x241 + 105537 x242 + 95124 x243
       + 107695 x244 + 97337 x245 + 96473 x246 + 100011 x247 + 102235 x248
       + 95653 x249 + 35792 x250 + 197829 x251 + 219608 x252 + 186351 x253
       + 199728 x254 + 205298 x255 + 210487 x256 + 198951 x257 + 190831 x258
       + 190582 x259 + 187949 x260 + 208985 x261 + 186699 x262 + 192067 x263
       + 209325 x264 + 212745 x265 + 180971 x266 + 213455 x267 + 192979 x268
       + 191800 x269 + 201684 x270 + 206168 x271 + 190199 x272 + 183551 x273
       + 215969 x274 + 201035 x275 + 186312 x276 + 188180 x277 + 192961 x278
       + 202301 x279 + 197116 x280 + 186933 x281 + 217720 x282 + 191766 x283
       + 203615 x284 + 188296 x285 + 217788 x286 + 189294 x287 + 198708 x288
       + 183982 x289 + 186512 x290 + 218214 x291 + 183917 x292 + 185717 x293
       + 203567 x294 + 190036 x295 + 192363 x296 + 206716 x297 + 183161 x298
       + 192727 x299 + 336852 x300
Subject To
 c1:   x5 - x20 - x24 - x34 + x41 + x43 - x44 - x46  = 0
 c2:   x55 - x70 - x74 - x84 + x91 + x93 - x94 - x96  = 0
 c3:   x105 - x120 - x124 - x134 + x141 + x143 - x144 - x146  = 1
 c4:   x155 - x170 - x174 - x184 + x191 + x193 - x194 - x196  = 0
 c5:   x205 - x220 - x224 - x234 + x241 + x243 - x244 - x246  = 0
 c6:   - x4 - x8 - x11 - x30 + x33 - x43 + x47  = 0
 c7:   - x54 - x58 - x61 - x80 + x83 - x93 + x97  = 0
 c8:   - x104 - x108 - x111 - x130 + x133 - x143 + x147  = 0
 c9:   - x154 - x158 - x161 - x180 + x183 - x193 + x197  = 0
 c10:  - x204 - x208 - x211 - x230 + x233 - x243 + x247  = 0
 c11:  - x7 + x14 + x23 - x49  = 0
 c12:  - x57 + x64 + x73 - x99  = 0
 c13:  - x107 + x114 + x123 - x149  = 0
 c14:  - x157 + x164 + x173 - x199  = 0
 c15:  - x207 + x214 + x223 - x249  = 0
 c16:  x8 + x10 + x16 + x18 - x21 - x29 + x36 - x39  = 0
 c17:  x58 + x60 + x66 + x68 - x71 - x79 + x86 - x89  = 0
 c18:  x108 + x110 + x116 + x118 - x121 - x129 + x136 - x139  = 0
 c19:  x158 + x160 + x166 + x168 - x171 - x179 + x186 - x189  = 1
 c20:  x208 + x210 + x216 + x218 - x221 - x229 + x236 - x239  = 0
 c21:  x3 - x19 + x24 + x28 + x29 + x31  = 0
 c22:  x53 - x69 + x74 + x78 + x79 + x81  = 0
 c23:  x103 - x119 + x124 + x128 + x129 + x131  = 0
 c24:  x153 - x169 + x174 + x178 + x179 + x181  = 0
 c25:  x203 - x219 + x224 + x228 + x229 + x231  = 1
 c26:  - x13 + x22 - x25 + x30 - x31 + x37  = 0
 c27:  - x63 + x72 - x75 + x80 - x81 + x87  = 0
 c28:  - x113 + x122 - x125 + x130 - x131 + x137  = 0
 c29:  - x163 + x172 - x175 + x180 - x181 + x187  = 0
 c30:  - x213 + x222 - x225 + x230 - x231 + x237  = 0
 c31:  x21 - x23 + x42 + x46 - x47 + x49  = 0
 c32:  x71 - x73 + x92 + x96 - x97 + x99  = 0
 c33:  x121 - x123 + x142 + x146 - x147 + x149  = 0
 c34:  x171 - x173 + x192 + x196 - x197 + x199  = 0
 c35:  x221 - x223 + x242 + x246 - x247 + x249  = -1
 c36:  x6 - x9 - x14 - x16 + x19 + x26 + x27 - x28 - x38 - x40 + x50  = 0
 c37:  x56 - x59 - x64 - x66 + x69 + x76 + x77 - x78 - x88 - x90 + x100  = 0
 c38:  x106 - x109 - x114 - x116 + x119 + x126 + x127 - x128 - x138 - x140
       + x150  = 0
 c39:  x156 - x159 - x164 - x166 + x169 + x176 + x177 - x178 - x188 - x190
       + x200  = 0
 c40:  x206 - x209 - x214 - x216 + x219 + x226 + x227 - x228 - x238 - x240
       + x250  = 0
 c41:  x17 - x18 - x33 + x35 - x41 - x42 - x50  = 0
 c42:  x67 - x68 - x83 + x85 - x91 - x92 - x100  = 0
 c43:  x117 - x118 - x133 + x135 - x141 - x142 - x150  = 0
 c44:  x167 - x168 - x183 + x185 - x191 - x192 - x200  = 0
 c45:  x217 - x218 - x233 + x235 - x241 - x242 - x250  = 0
 c46:  - x2 - x3 + x4 + x9 + x12 - x15 - x17 + x48  = 1
 c47:  - x52 - x53 + x54 + x59 + x62 - x65 - x67 + x98  = 0
 c48:  - x102 - x103 + x104 + x109 + x112 - x115 - x117 + x148  = 0
 c49:  - x152 - x153 + x154 + x159 + x162 - x165 - x167 + x198  = 0
 c50:  - x202 - x203 + x204 + x209 + x212 - x215 - x217 + x248  = 0
 c51:  x11 + x15 + x25 + x38 - x48  = 0
 c52:  x61 + x65 + x75 + x88 - x98  = 0
 c53:  x111 + x115 + x125 + x138 - x148  = 0
 c54:  x161 + x165 + x175 + x188 - x198  = 0
 c55:  x211 + x215 + x225 + x238 - x248  = 0
 c56:  - x5 + x13 + x34 - x37 + x40  = 0
 c57:  - x55 + x63 + x84 - x87 + x90  = 1
 c58:  - x105 + x113 + x134 - x137 + x140  = 0
 c59:  - x155 + x163 + x184 - x187 + x190  = 0
 c60:  - x205 + x213 + x234 - x237 + x240  = 0
 c61:  - x10 - x27 + x32 - x35 + x45  = -1
 c62:  - x60 - x77 + x82 - x85 + x95  = 0
 c63:  - x110 - x127 + x132 - x135 + x145  = -1
 c64:  - x160 - x177 + x182 - x185 + x195  = -1
 c65:  - x210 - x227 + x232 - x235 + x245  = 0
 c66:  x1 - x6 - x32 - x36 + x39 + x44  = 0
 c67:  x51 - x56 - x82 - x86 + x89 + x94  = -1
 c68:  x101 - x106 - x132 - x136 + x139 + x144  = 0
 c69:  x151 - x156 - x182 - x186 + x189 + x194  = 0
 c70:  x201 - x206 - x232 - x236 + x239 + x244  = 0
 c71:  - x1 + x2 + x7 - x12 + x20 - x22 - x26 - x45  = 0
 c72:  - x51 + x52 + x57 - x62 + x70 - x72 - x76 - x95  = 0
 c73:  - x101 + x102 + x107 - x112 + x120 - x122 - x126 - x145  = 0
 c74:  - x151 + x152 + x157 - x162 + x170 - x172 - x176 - x195  = 0
 c75:  - x201 + x202 + x207 - x212 + x220 - x222 - x226 - x245  = 0
 c76:  4 x1 + 4 x51 + 4 x101 + 4 x151 + 4 x201 - 10 x251 <= 0
 c77:  4 x2 + 4 x52 + 4 x102 + 4 x152 + 4 x202 - 9 x252 <= 0
 c78:  4 x3 + 4 x53 + 4 x103 + 4 x153 + 4 x203 - 11 x253 <= 0
 c79:  4 x4 + 4 x54 + 4 x104 + 4 x154 + 4 x204 - 9 x254 <= 0
 c80:  4 x5 + 4 x55 + 4 x105 + 4 x155 + 4 x205 - 11 x255 <= 0
 c81:  4 x6 + 4 x56 + 4 x106 + 4 x156 + 4 x206 - 10 x256 <= 0
 c82:  4 x7 + 4 x57 + 4 x107 + 4 x157 + 4 x207 - 11 x257 <= 0
 c83:  4 x8 + 4 x58 + 4 x108 + 4 x158 + 4 x208 - 11 x258 <= 0
 c84:  4 x9 + 4 x59 + 4 x109 + 4 x159 + 4 x209 - 9 x259 <= 0
 c85:  4 x10 + 4 x60 + 4 x110 + 4 x160 + 4 x210 - 11 x260 <= 0
 c86:  4 x11 + 4 x61 + 4 x111 + 4 x161 + 4 x211 - 9 x261 <= 0
 c87:  4 x12 + 4 x62 + 4 x112 + 4 x162 + 4 x212 - 11 x262 <= 0
 c88:  4 x13 + 4 x63 + 4 x113 + 4 x163 + 4 x213 - 10 x263 <= 0
 c89:  4 x14 + 4 x64 + 4 x114 + 4 x164 + 4 x214 - 10 x264 <= 0
 c90:  4 x15 + 4 x65 + 4 x115 + 4 x165 + 4 x215 - 10 x265 <= 0
 c91:  4 x16 + 4 x66 + 4 x116 + 4 x166 + 4 x216 - 9 x266 <= 0
 c92:  4 x17 + 4 x67 + 4 x117 + 4 x167 + 4 x217 - 10 x267 <= 0
 c93:  4 x18 + 4 x68 + 4 x118 + 4 x168 + 4 x218 - 9 x268 <= 0
 c94:  4 x19 + 4 x69 + 4 x119 + 4 x169 + 4 x219 - 10 x269 <= 0
 c95:  4 x20 + 4 x70 + 4 x120 + 4 x170 + 4 x220 - 10 x270 <= 0
 c96:  4 x21 + 4 x71 + 4 x121 + 4 x171 + 4 x221 - 9 x271 <= 0
 c97:  4 x22 + 4 x72 + 4 x122 + 4 x172 + 4 x222 - 9 x272 <= 0
 c98:  4 x23 + 4 x73 + 4 x123 + 4 x173 + 4 x223 - 10 x273 <= 0
 c99:  4 x24 + 4 x74 + 4 x124 + 4 x174 + 4 x224 - 11 x274 <= 0
 c100: 4 x25 + 4 x75 + 4 x125 + 4 x175 + 4 x225 - 10 x275 <= 0
 c101: 4 x26 + 4 x76 + 4 x126 + 4 x176 + 4 x226 - 10 x276 <= 0
 c102: 4 x27 + 4 x77 + 4 x127 + 4 x177 + 4 x227 - 9 x277 <= 0
 c103: 4 x28 + 4 x78 + 4 x128 + 4 x178 + 4 x228 - 11 x278 <= 0
 c104: 4 x29 + 4 x79 + 4 x129 + 4 x179 + 4 x229 - 10 x279 <= 0
 c105: 4 x30 + 4 x80 + 4 x130 + 4 x180 + 4 x230 - 11 x280 <= 0
 c106: 4 x31 + 4 x81 + 4 x131 + 4 x181 + 4 x231 - 10 x281 <= 0
 c107: 4 x32 + 4 x82 + 4 x132 + 4 x182 + 4 x232 - 9 x282 <= 0
 c108: 4 x33 + 4 x83 + 4 x133 + 4 x183 + 4 x233 - 10 x283 <= 0
 c109: 4 x34 + 4 x84 + 4 x134 + 4 x184 + 4 x234 - 10 x284 <= 0
 c110: 4 x35 + 4 x85 + 4 x135 + 4 x185 + 4 x235 - 11 x285 <= 0
 c111: 4 x36 + 4 x86 + 4 x136 + 4 x186 + 4 x236 - 10 x286 <= 0
 c112: 4 x37 + 4 x87 + 4 x137 + 4 x187 + 4 x237 - 10 x287 <= 0
 c113: 4 x38 + 4 x88 + 4 x138 + 4 x188 + 4 x238 - 9 x288 <= 0
 c114: 4 x39 + 4 x89 + 4 x139 + 4 x189 + 4 x239 - 10 x289 <= 0
 c115: 4 x40 + 4 x90 + 4 x140 + 4 x190 + 4 x240 - 10 x290 <= 0
 c116: 4 x41 + 4 x91 + 4 x141 + 4 x191 + 4 x241 - 10 x291 <= 0
 c117: 4 x42 + 4 x92 + 4 x142 + 4 x192 + 4 x242 - 11 x292 <= 0
 c118: 4 x43 + 4 x93 + 4 x143 + 4 x193 + 4 x243 - 10 x293 <= 0
 c119: 4 x44 + 4 x94 + 4 x144 + 4 x194 + 4 x244 - 11 x294 <= 0
 c120: 4 x45 + 4 x95 + 4 x145 + 4 x195 + 4 x245 - 11 x295 <= 0
 c121: 4 x46 + 4 x96 + 4 x146 + 4 x196 + 4 x246 - 10 x296 <= 0
 c122: 4 x47 + 4 x97 + 4 x147 + 4 x197 + 4 x247 - 11 x297 <= 0
 c123: 4 x48 + 4 x98 + 4 x148 + 4 x198 + 4 x248 - 9 x298 <= 0
 c124: 4 x49 + 4 x99 + 4 x149 + 4 x199 + 4 x249 - 9 x299 <= 0
 c125: 4 x50 + 4 x100 + 4 x150 + 4 x200 + 4 x250 - 9 x300 <= 0
Bounds
 0 <= x1 <= 1
 0 <= x2 <= 1
 0 <= x3 <= 1
 0 <= x4 <= 1
 0 <= x5 <= 1
 0 <= x6 <= 1
 0 <= x7 <= 1
 0 <= x8 <= 1
 0 <= x9 <= 1
 0 <= x10 <= 1
 0 <= x11 <= 1
 0 <= x12 <= 1
 0 <= x13 <= 1
 0 <= x14 <= 1
 0 <= x15 <= 1
 0 <= x16 <= 1
 0 <= x17 <= 1
 0 <= x18 <= 1
 0 <= x19 <= 1
 0 <= x20 <= 1
 0 <= x21 <= 1
 0 <= x22 <= 1
 0 <= x23 <= 1
 0 <= x24 <= 1
 0 <= x25 <= 1
 0 <= x26 <= 1
 0 <= x27 <= 1
 0 <= x28 <= 1
 0 <= x29 <= 1
 0 <= x30 <= 1
 0 <= x31 <= 1
 0 <= x32 <= 1
 0 <= x33 <= 1
 0 <= x34 <= 1
 0 <= x35 <= 1
 0 <= x36 <= 1
 0 <= x37 <= 1
 0 <= x38 <= 1
 0 <= x39 <= 1
 0 <= x40 <= 1
 0 <= x41 <= 1
 0 <= x42 <= 1
 0 <= x43 <= 1
 0 <= x44 <= 1
 0 <= x45 <= 1
 0 <= x46 <= 1
 0 <= x47 <= 1
 0 <= x48 <= 1
 0 <= x49 <= 1
 0 <= x50 <= 1
 0 <= x51 <= 1
 0 <= x52 <= 1
 0 <= x53 <= 1
 0 <= x54 <= 1
 0 <= x55 <= 1
 0 <= x56 <= 1
 0 <= x57 <= 1
 0 <= x58 <= 1
 0 <= x59 <= 1
 0 <= x60 <= 1
 0 <= x61 <= 1
 0 <= x62 <= 1
 0 <= x63 <= 1
 0 <= x64 <= 1
 0 <= x65 <= 1
 0 <= x66 <= 1
 0 <= x67 <= 1
 0 <= x68 <= 1
 0 <= x69 <= 1
 0 <= x70 <= 1
 0 <= x71 <= 1
 0 <= x72 <= 1
 0 <= x73 <= 1
 0 <= x74 <= 1
 0 <= x75 <= 1
 0 <= x76 <= 1
 0 <= x77 <= 1
 0 <= x78 <= 1
 0 <= x79 <= 1
 0 <= x80 <= 1
 0 <= x81 <= 1
 0 <= x82 <= 1
 0 <= x83 <= 1
 0 <= x84 <= 1
 0 <= x85 <= 1
 0 <= x86 <= 1
 0 <= x87 <= 1
 0 <= x88 <= 1
 0 <= x89 <= 1
 0 <= x90 <= 1
 0 <= x91 <= 1
 0 <= x92 <= 1
 0 <= x93 <= 1
 0 <= x94 <= 1
 0 <= x95 <= 1
 0 <= x96 <= 1
 0 <= x97 <= 1
 0 <= x98 <= 1
 0 <= x99 <= 1
 0 <= x100 <= 1
 0 <= x101 <= 1
 0 <= x102 <= 1
 0 <= x103 <= 1
 0 <= x104 <= 1
 0 <= x105 <= 1
 0 <= x106 <= 1
 0 <= x107 <= 1
 0 <= x108 <= 1
 0 <= x109 <= 1
 0 <= x110 <= 1
 0 <= x111 <= 1
 0 <= x112 <= 1
 0 <= x113 <= 1
 0 <= x114 <= 1
 0 <= x115 <= 1
 0 <= x116 <= 1
 0 <= x117 <= 1
 0 <= x118 <= 1
 0 <= x119 <= 1
 0 <= x120 <= 1
 0 <= x121 <= 1
 0 <= x122 <= 1
 0 <= x123 <= 1
 0 <= x124 <= 1
 0 <= x125 <= 1
 0 <= x126 <= 1
 0 <= x127 <= 1
 0 <= x128 <= 1
 0 <= x129 <= 1
 0 <= x130 <= 1
 0 <= x131 <= 1
 0 <= x132 <= 1
 0 <= x133 <= 1
 0 <= x134 <= 1
 0 <= x135 <= 1
 0 <= x136 <= 1
 0 <= x137 <= 1
 0 <= x138 <= 1
 0 <= x139 <= 1
 0 <= x140 <= 1
 0 <= x141 <= 1
 0 <= x142 <= 1
 0 <= x143 <= 1
 0 <= x144 <= 1
 0 <= x145 <= 1
 0 <= x146 <= 1
 0 <= x147 <= 1
 0 <= x148 <= 1
 0 <= x149 <= 1
 0 <= x150 <= 1
 0 <= x151 <= 1
 0 <= x152 <= 1
 0 <= x153 <= 1
 0 <= x154 <= 1
 0 <= x155 <= 1
 0 <= x156 <= 1
 0 <= x157 <= 1
 0 <= x158 <= 1
 0 <= x159 <= 1
 0 <= x160 <= 1
 0 <= x161 <= 1
 0 <= x162 <= 1
 0 <= x163 <= 1
 0 <= x164 <= 1
 0 <= x165 <= 1
 0 <= x166 <= 1
 0 <= x167 <= 1
 0 <= x168 <= 1
 0 <= x169 <= 1
 0 <= x170 <= 1
 0 <= x171 <= 1
 0 <= x172 <= 1
 0 <= x173 <= 1
 0 <= x174 <= 1
 0 <= x175 <= 1
 0 <= x176 <= 1
 0 <= x177 <= 1
 0 <= x178 <= 1
 0 <= x179 <= 1
 0 <= x180 <= 1
 0 <= x181 <= 1
 0 <= x182 <= 1
 0 <= x183 <= 1
 0 <= x184 <= 1
 0 <= x185 <= 1
 0 <= x186 <= 1
 0 <= x187 <= 1
 0 <= x188 <= 1
 0 <= x189 <= 1
 0 <= x190 <= 1
 0 <= x191 <= 1
 0 <= x192 <= 1
 0 <= x193 <= 1
 0 <= x194 <= 1
 0 <= x195 <= 1
 0 <= x196 <= 1
 0 <= x197 <= 1
 0 <= x198 <= 1
 0 <= x199 <= 1
 0 <= x200 <= 1
 0 <= x201 <= 1
 0 <= x202 <= 1
 0 <= x203 <= 1
 0 <= x204 <= 1
 0 <= x205 <= 1
 0 <= x206 <= 1
 0 <= x207 <= 1
 0 <= x208 <= 1
 0 <= x209 <= 1
 0 <= x210 <= 1
 0 <= x211 <= 1
 0 <= x212 <= 1
 0 <= x213 <= 1
 0 <= x214 <= 1
 0 <= x215 <= 1
 0 <= x216 <= 1
 0 <= x217 <= 1
 0 <= x218 <= 1
 0 <= x219 <= 1
 0 <= x220 <= 1
 0 <= x221 <= 1
 0 <= x222 <= 1
 0 <= x223 <= 1
 0 <= x224 <= 1
 0 <= x225 <= 1
 0 <= x226 <= 1
 0 <= x227 <= 1
 0 <= x228 <= 1
 0 <= x229 <= 1
 0 <= x230 <= 1
 0 <= x231 <= 1
 0 <= x232 <= 1
 0 <= x233 <= 1
 0 <= x234 <= 1
 0 <= x235 <= 1
 0 <= x236 <= 1
 0 <= x237 <= 1
 0 <= x238 <= 1
 0 <= x239 <= 1
 0 <= x240 <= 1
 0 <= x241 <= 1
 0 <= x242 <= 1
 0 <= x243 <= 1
 0 <= x244 <= 1
 0 <= x245 <= 1
 0 <= x246 <= 1
 0 <= x247 <= 1
 0 <= x248 <= 1
 0 <= x249 <= 1
 0 <= x250 <= 1
 0 <= x251 <= 1
 0 <= x252 <= 1
 0 <= x253 <= 1
 0 <= x254 <= 1
 0 <= x255 <= 1
 0 <= x256 <= 1
 0 <= x257 <= 1
 0 <= x258 <= 1
 0 <= x259 <= 1
 0 <= x260 <= 1
 0 <= x261 <= 1
 0 <= x262 <= 1
 0 <= x263 <= 1
 0 <= x264 <= 1
 0 <= x265 <= 1
 0 <= x266 <= 1
 0 <= x267 <= 1
 0 <= x268 <= 1
 0 <= x269 <= 1
 0 <= x270 <= 1
 0 <= x271 <= 1
 0 <= x272 <= 1
 0 <= x273 <= 1
 0 <= x274 <= 1
 0 <= x275 <= 1
 0 <= x276 <= 1
 0 <= x277 <= 1
 0 <= x278 <= 1
 0 <= x279 <= 1
 0 <= x280 <= 1
 0 <= x281 <= 1
 0 <= x282 <= 1
 0 <= x283 <= 1
 0 <= x284 <= 1
 0 <= x285 <= 1
 0 <= x286 <= 1
 0 <= x287 <= 1
 0 <= x288 <= 1
 0 <= x289 <= 1
 0 <= x290 <= 1
 0 <= x291 <= 1
 0 <= x292 <= 1
 0 <= x293 <= 1
 0 <= x294 <= 1
 0 <= x295 <= 1
 0 <= x296 <= 1
 0 <= x297 <= 1
 0 <= x298 <= 1
 0 <= x299 <= 1
 0 <= x300 <= 1
Binaries
 x251  x252  x253  x254  x255  x256  x257  x258  x259  x260  x261  x262  x263 
 x264  x265  x266  x267  x268  x269  x270  x271  x272  x273  x274  x275  x276 
 x277  x278  x279  x280  x281  x282  x283  x284  x285  x286  x287  x288  x289 
 x290  x291  x292  x293  x294  x295  x296  x297  x298  x299  x300 
End
